(set-option :print-success false)
(set-logic QF_UF)
(declare-sort x29 0)
(declare-sort x118 0)
(declare-fun x111 () x118)
(declare-fun x8 () x118)
(declare-fun x56 () x118)
(declare-fun x67 () x118)
(declare-fun x123 () x118)
(declare-fun x89 (x118 x118) x118)
(declare-fun x4 (x118 x118) x118)
(assert (let ((x66 (x89 x8 x111)) (x151 (x89 x8 x56)) (x117 (x89 x67 x56)) (x142 (x89 x56 x111)) (x3 (x89 x56 x8)) (x6 (x89 x123 x8)) (x35 (x89 x111 x56)) (x18 (x89 x8 x67)) (x85 (x89 x67 x67)) (x71 (x89 x56 x67)) (x158 (x89 x56 x123)) (x72 (x89 x67 x123)) (x138 (x89 x111 x111)) (x34 (x89 x123 x111)) (x33 (x89 x8 x8)) (x38 (x89 x123 x56)) (x133 (x89 x111 x67)) (x12 (x89 x111 x123)) (x1 (x89 x8 x123)) (x146 (x89 x123 x123)) (x15 (x89 x56 x56)) (x31 (x89 x67 x8)) (x132 (x89 x111 x8)) (x11 (x89 x67 x111)) (x144 (x89 x123 x67))) (and (and (and (not (= x144 x146)) (and (not (= x146 x34)) (and (and (not (= x6 x146)) (and (not (= x144 x6)) (and (and (not (= x146 x38)) (and (not (= x144 x38)) (and (not (= x38 x6)) (not (= x38 x34))))) (not (= x6 x34))))) (not (= x34 x144))))) (and (and (and (and (not (= x85 x11)) (and (not (= x31 x72)) (and (and (and (and (not (= x85 x117)) (and (not (= x117 x31)) (not (= x11 x117)))) (not (= x72 x117))) (not (= x11 x31))) (not (= x31 x85))))) (not (= x72 x11))) (not (= x72 x85))) (and (and (and (and (not (= x1 x66)) (and (not (= x66 x18)) (and (not (= x1 x33)) (and (and (and (and (and (not (= x151 x66)) (not (= x33 x151))) (not (= x151 x18))) (not (= x1 x151))) (not (= x33 x66))) (not (= x33 x18)))))) (not (= x18 x1))) (and (and (and (not (= x71 x142)) (and (and (not (= x3 x71)) (and (and (not (= x15 x158)) (and (and (not (= x3 x15)) (not (= x142 x15))) (not (= x15 x71)))) (not (= x142 x3)))) (not (= x3 x158)))) (not (= x158 x142))) (not (= x158 x71)))) (and (and (not (= x12 x138)) (and (and (not (= x12 x132)) (and (and (and (and (and (not (= x35 x138)) (not (= x35 x132))) (not (= x35 x133))) (not (= x35 x12))) (not (= x132 x138))) (not (= x133 x132)))) (not (= x138 x133)))) (not (= x133 x12)))))) (and (and (and (and (not (= x72 x12)) (and (not (= x1 x146)) (and (not (= x1 x72)) (and (and (and (not (= x72 x158)) (and (not (= x1 x158)) (not (= x12 x158)))) (not (= x146 x158))) (not (= x12 x1)))))) (not (= x146 x12))) (not (= x146 x72))) (and (and (and (and (and (and (and (and (and (not (= x33 x132)) (and (and (and (not (= x33 x3)) (not (= x3 x132))) (not (= x31 x3))) (not (= x6 x3)))) (not (= x31 x33))) (not (= x6 x33))) (not (= x132 x31))) (not (= x6 x132))) (not (= x6 x31))) (and (and (and (and (not (= x151 x38)) (and (and (and (not (= x15 x38)) (and (and (not (= x15 x35)) (not (= x15 x151))) (not (= x15 x117)))) (not (= x151 x35))) (not (= x117 x151)))) (not (= x35 x117))) (not (= x38 x35))) (not (= x117 x38)))) (and (not (= x34 x11)) (and (and (and (not (= x66 x34)) (and (and (and (and (and (not (= x142 x66)) (not (= x142 x138))) (not (= x142 x11))) (not (= x142 x34))) (not (= x138 x66))) (not (= x66 x11)))) (not (= x11 x138))) (not (= x34 x138))))) (and (and (and (and (not (= x144 x18)) (and (not (= x85 x18)) (and (not (= x18 x133)) (and (and (and (not (= x71 x18)) (not (= x71 x133))) (not (= x71 x85))) (not (= x71 x144)))))) (not (= x133 x85))) (not (= x133 x144))) (not (= x144 x85))))))))
(assert (let ((x35 (x89 x8 x8)) (x3 (x89 x123 x123)) (x151 (x89 x56 x56)) (x117 (x89 x111 x111)) (x38 (x89 x67 x67))) (let ((x132 (= x35 x8)) (x138 (= x111 x117)) (x34 (= x3 x123)) (x15 (= x56 x151)) (x11 (= x67 x38))) (let ((x6 (or (or (= x111 x38) (or x138 (or (= x111 x35) (= x111 x151)))) (= x3 x111))) (x33 (or (= x3 x56) (or (or (= x56 x117) (or (= x56 x35) x15)) (= x56 x38)))) (x66 (or x34 (or (= x38 x123) (or (or (= x151 x123) (= x123 x35)) (= x117 x123))))) (x142 (or (= x3 x67) (or x11 (or (= x67 x117) (or (= x67 x35) (= x151 x67)))))) (x31 (or (or (or (or (= x151 x8) x132) (= x117 x8)) (= x38 x8)) (= x3 x8)))) (and (and (and (and (and (and (or (not (= (x89 x8 x67) x8)) x142) (and (and (or x31 (not x132)) (or (not (= (x89 x8 x56) x8)) x33)) (or (not (= (x89 x8 x111) x8)) x6))) (or x66 (not (= x8 (x89 x8 x123))))) (and (or (not (= x56 (x89 x56 x123))) x66) (and (or (not (= (x89 x56 x67) x56)) x142) (and (and (or (not (= (x89 x56 x8) x56)) x31) (or x33 (not x15))) (or x6 (not (= (x89 x56 x111) x56))))))) (and (and (or (not (= (x89 x111 x67) x111)) x142) (and (and (or x33 (not (= (x89 x111 x56) x111))) (or x31 (not (= (x89 x111 x8) x111)))) (or x6 (not x138)))) (or (not (= (x89 x111 x123) x111)) x66))) (and (or (not (= x67 (x89 x67 x123))) x66) (and (and (or x6 (not (= x67 (x89 x67 x111)))) (and (or (not (= x67 (x89 x67 x56))) x33) (or (not (= x67 (x89 x67 x8))) x31))) (or (not x11) x142)))) (and (and (or x142 (not (= x123 (x89 x123 x67)))) (and (and (or (not (= x123 (x89 x123 x8))) x31) (or (not (= x123 (x89 x123 x56))) x33)) (or x6 (not (= x123 (x89 x123 x111)))))) (or x66 (not x34))))))))
(assert (or (= (x89 x123 x123) x123) (or (= (x89 x67 x67) x67) (or (= (x89 x111 x111) x111) (or (= x8 (x89 x8 x8)) (= (x89 x56 x56) x56))))))
(assert (let ((x3 (x89 x8 x56)) (x72 (x89 x123 x67)) (x151 (x89 x56 x8)) (x18 (x89 x67 x8)) (x117 (x89 x56 x67)) (x138 (x89 x111 x111)) (x132 (x89 x8 x111)) (x31 (x89 x8 x67)) (x85 (x89 x67 x67)) (x12 (x89 x123 x111)) (x71 (x89 x67 x56)) (x66 (x89 x111 x8)) (x35 (x89 x56 x111)) (x6 (x89 x8 x123)) (x33 (x89 x8 x8)) (x1 (x89 x123 x8)) (x38 (x89 x56 x123)) (x158 (x89 x123 x56)) (x11 (x89 x111 x67)) (x34 (x89 x111 x123)) (x142 (x89 x111 x56)) (x15 (x89 x56 x56)) (x144 (x89 x67 x123)) (x146 (x89 x123 x123)) (x133 (x89 x67 x111))) (or (or (or (and (and (not (= (x89 x111 x34) x123)) (not (= x123 (x89 x34 x111)))) (and (and (not (= (x89 x111 x11) x67)) (not (= (x89 x11 x111) x67))) (and (and (not (= x111 (x89 x111 x138))) (not (= (x89 x138 x111) x111))) (and (and (not (= x8 (x89 x66 x111))) (not (= (x89 x111 x66) x8))) (and (not (= (x89 x111 x142) x56)) (not (= x56 (x89 x142 x111)))))))) (or (and (and (and (and (not (= x111 (x89 x56 x35))) (not (= (x89 x35 x56) x111))) (and (and (not (= x56 (x89 x15 x56))) (not (= x56 (x89 x56 x15)))) (and (not (= (x89 x56 x151) x8)) (not (= x8 (x89 x151 x56)))))) (and (not (= (x89 x56 x117) x67)) (not (= (x89 x117 x56) x67)))) (and (not (= x123 (x89 x56 x38))) (not (= x123 (x89 x38 x56))))) (and (and (not (= x123 (x89 x6 x8))) (not (= x123 (x89 x8 x6)))) (and (and (not (= x67 (x89 x8 x31))) (not (= (x89 x31 x8) x67))) (and (and (not (= (x89 x8 x132) x111)) (not (= x111 (x89 x132 x8)))) (and (and (not (= (x89 x8 x3) x56)) (not (= (x89 x3 x8) x56))) (and (not (= (x89 x8 x33) x8)) (not (= x8 (x89 x33 x8)))))))))) (and (and (not (= (x89 x67 x144) x123)) (not (= x123 (x89 x144 x67)))) (and (and (not (= (x89 x67 x85) x67)) (not (= x67 (x89 x85 x67)))) (and (and (and (not (= x56 (x89 x67 x71))) (not (= x56 (x89 x71 x67)))) (and (not (= (x89 x18 x67) x8)) (not (= (x89 x67 x18) x8)))) (and (not (= x111 (x89 x67 x133))) (not (= (x89 x133 x67) x111))))))) (and (and (not (= x123 (x89 x146 x123))) (not (= (x89 x123 x146) x123))) (and (and (not (= (x89 x72 x123) x67)) (not (= (x89 x123 x72) x67))) (and (and (and (not (= x8 (x89 x1 x123))) (not (= (x89 x123 x1) x8))) (and (not (= (x89 x158 x123) x56)) (not (= (x89 x123 x158) x56)))) (and (not (= (x89 x123 x12) x111)) (not (= x111 (x89 x12 x123))))))))))
(assert (not (and (and (and (and (= x123 (x89 x123 x8)) (and (= x67 (x89 x123 x56)) (and (and (= (x89 x67 x67) x123) (and (and (and (and (= (x89 x111 x123) x111) (and (and (= (x89 x111 x111) x8) (and (and (and (= x67 (x89 x8 x123)) (and (and (and (and (= x8 (x89 x8 x56)) (and (= (x89 x56 x123) x123) (and (and (and (= x8 (x89 x56 x8)) (= x56 (x89 x56 x56))) (= x67 (x89 x56 x111))) (= x111 (x89 x56 x67))))) (= (x89 x8 x8) x111)) (= (x89 x8 x111) x123)) (= x56 (x89 x8 x67)))) (= x123 (x89 x111 x56))) (= x56 (x89 x111 x8)))) (= (x89 x111 x67) x67))) (= x111 (x89 x67 x56))) (= x67 (x89 x67 x8))) (= (x89 x67 x111) x56))) (= (x89 x67 x123) x8)))) (= (x89 x123 x111) x111)) (= x8 (x89 x123 x67))) (= (x89 x123 x123) x56))))
(assert (let ((x35 (x89 x56 x111)) (x151 (x89 x56 x8)) (x85 (x89 x67 x67)) (x146 (x89 x123 x123)) (x38 (x89 x56 x123)) (x144 (x89 x67 x123)) (x34 (x89 x111 x123)) (x6 (x89 x8 x123)) (x1 (x89 x123 x8)) (x12 (x89 x123 x111)) (x15 (x89 x56 x56)) (x158 (x89 x123 x56)) (x132 (x89 x8 x111)) (x71 (x89 x67 x56)) (x31 (x89 x8 x67)) (x138 (x89 x111 x111)) (x133 (x89 x67 x111)) (x66 (x89 x111 x8)) (x117 (x89 x56 x67)) (x3 (x89 x8 x56)) (x18 (x89 x67 x8)) (x72 (x89 x123 x67)) (x11 (x89 x111 x67)) (x142 (x89 x111 x56)) (x33 (x89 x8 x8))) (or (or (or (and (not (= (x89 x34 x34) x123)) (and (and (not (= (x89 x138 x138) x111)) (and (not (= (x89 x66 x66) x8)) (not (= x56 (x89 x142 x142))))) (not (= (x89 x11 x11) x67)))) (or (and (and (and (and (not (= x8 (x89 x33 x33))) (not (= x56 (x89 x3 x3)))) (not (= x111 (x89 x132 x132)))) (not (= x67 (x89 x31 x31)))) (not (= x123 (x89 x6 x6)))) (and (not (= x123 (x89 x38 x38))) (and (and (and (not (= (x89 x15 x15) x56)) (not (= x8 (x89 x151 x151)))) (not (= (x89 x35 x35) x111))) (not (= (x89 x117 x117) x67)))))) (and (not (= (x89 x144 x144) x123)) (and (not (= (x89 x85 x85) x67)) (and (not (= x111 (x89 x133 x133))) (and (not (= x8 (x89 x18 x18))) (not (= x56 (x89 x71 x71)))))))) (and (not (= x123 (x89 x146 x146))) (and (not (= (x89 x72 x72) x67)) (and (not (= (x89 x12 x12) x111)) (and (not (= x8 (x89 x1 x1))) (not (= x56 (x89 x158 x158))))))))))
(assert (or (and (= x123 (x89 (x89 x123 x123) x123)) (and (and (and (= (x89 (x89 x8 x123) x123) x8) (= x56 (x89 (x89 x56 x123) x123))) (= x111 (x89 (x89 x111 x123) x123))) (= x67 (x89 (x89 x67 x123) x123)))) (or (and (= (x89 (x89 x123 x67) x67) x123) (and (= (x89 (x89 x67 x67) x67) x67) (and (= x111 (x89 (x89 x111 x67) x67)) (and (= x56 (x89 (x89 x56 x67) x67)) (= (x89 (x89 x8 x67) x67) x8))))) (or (and (= (x89 (x89 x123 x111) x111) x123) (and (and (and (= x56 (x89 (x89 x56 x111) x111)) (= x8 (x89 (x89 x8 x111) x111))) (= x111 (x89 (x89 x111 x111) x111))) (= x67 (x89 (x89 x67 x111) x111)))) (or (and (and (and (= x111 (x89 (x89 x111 x56) x56)) (and (= x8 (x89 (x89 x8 x56) x56)) (= (x89 (x89 x56 x56) x56) x56))) (= x67 (x89 (x89 x67 x56) x56))) (= (x89 (x89 x123 x56) x56) x123)) (and (= (x89 (x89 x123 x8) x8) x123) (and (and (= x111 (x89 (x89 x111 x8) x8)) (and (= x8 (x89 (x89 x8 x8) x8)) (= (x89 (x89 x56 x8) x8) x56))) (= (x89 (x89 x67 x8) x8) x67))))))))
(assert (or (and (and (not (= x123 (x89 x67 (x89 x123 x67)))) (and (and (not (= (x89 x8 (x89 x123 x8)) x123)) (not (= (x89 x56 (x89 x123 x56)) x123))) (not (= x123 (x89 x111 (x89 x123 x111)))))) (not (= x123 (x89 x123 (x89 x123 x123))))) (or (and (not (= (x89 x123 (x89 x67 x123)) x67)) (and (not (= x67 (x89 x67 (x89 x67 x67)))) (and (and (not (= (x89 x56 (x89 x67 x56)) x67)) (not (= x67 (x89 x8 (x89 x67 x8))))) (not (= (x89 x111 (x89 x67 x111)) x67))))) (or (and (not (= x111 (x89 x123 (x89 x111 x123)))) (and (not (= (x89 x67 (x89 x111 x67)) x111)) (and (and (not (= x111 (x89 x8 (x89 x111 x8)))) (not (= (x89 x56 (x89 x111 x56)) x111))) (not (= (x89 x111 (x89 x111 x111)) x111))))) (or (and (not (= x56 (x89 x123 (x89 x56 x123)))) (and (not (= x56 (x89 x67 (x89 x56 x67)))) (and (not (= (x89 x111 (x89 x56 x111)) x56)) (and (not (= x56 (x89 x8 (x89 x56 x8)))) (not (= (x89 x56 (x89 x56 x56)) x56)))))) (and (not (= x8 (x89 x123 (x89 x8 x123)))) (and (and (and (not (= x8 (x89 x8 (x89 x8 x8)))) (not (= x8 (x89 x56 (x89 x8 x56))))) (not (= (x89 x111 (x89 x8 x111)) x8))) (not (= (x89 x67 (x89 x8 x67)) x8)))))))))
(assert (let ((x66 (x89 x111 x8)) (x133 (x89 x67 x111)) (x132 (x89 x8 x111)) (x18 (x89 x67 x8)) (x144 (x89 x67 x123)) (x38 (x89 x56 x123)) (x6 (x89 x8 x123)) (x138 (x89 x111 x111)) (x158 (x89 x123 x56)) (x142 (x89 x111 x56)) (x117 (x89 x56 x67)) (x11 (x89 x111 x67)) (x85 (x89 x67 x67)) (x1 (x89 x123 x8)) (x71 (x89 x67 x56)) (x72 (x89 x123 x67)) (x34 (x89 x111 x123)) (x15 (x89 x56 x56)) (x3 (x89 x8 x56)) (x31 (x89 x8 x67)) (x12 (x89 x123 x111)) (x35 (x89 x56 x111)) (x33 (x89 x8 x8)) (x151 (x89 x56 x8)) (x146 (x89 x123 x123))) (and (and (and (and (and (and (and (and (or (or (or (= x15 x111) (or (= x15 x8) (= x15 x56))) (= x67 x15)) (= x15 x123)) (or (= x151 x123) (or (= x67 x151) (or (= x151 x111) (or (= x151 x56) (= x8 x151)))))) (or (or (or (= x35 x111) (or (= x35 x8) (= x56 x35))) (= x67 x35)) (= x123 x35))) (or (or (or (= x111 x117) (or (= x117 x56) (= x117 x8))) (= x117 x67)) (= x117 x123))) (or (= x38 x123) (or (or (= x111 x38) (or (= x8 x38) (= x56 x38))) (= x38 x67)))) (and (or (= x6 x123) (or (= x67 x6) (or (or (= x6 x8) (= x6 x56)) (= x111 x6)))) (and (and (or (or (= x67 x132) (or (= x111 x132) (or (= x132 x8) (= x56 x132)))) (= x123 x132)) (and (or (= x123 x33) (or (= x67 x33) (or (= x111 x33) (or (= x33 x56) (= x33 x8))))) (or (= x3 x123) (or (= x3 x67) (or (= x3 x111) (or (= x3 x56) (= x8 x3))))))) (or (or (= x67 x31) (or (= x111 x31) (or (= x8 x31) (= x56 x31)))) (= x31 x123))))) (and (or (or (or (= x111 x34) (or (= x56 x34) (= x34 x8))) (= x34 x67)) (= x123 x34)) (and (or (= x11 x123) (or (= x67 x11) (or (= x11 x111) (or (= x8 x11) (= x56 x11))))) (and (or (or (= x67 x138) (or (or (= x138 x8) (= x56 x138)) (= x138 x111))) (= x138 x123)) (and (or (or (or (or (= x66 x8) (= x66 x56)) (= x111 x66)) (= x66 x67)) (= x123 x66)) (or (= x123 x142) (or (or (= x142 x111) (or (= x8 x142) (= x142 x56))) (= x67 x142)))))))) (and (and (and (and (or (or (= x67 x18) (or (= x111 x18) (or (= x18 x56) (= x8 x18)))) (= x18 x123)) (or (or (= x67 x71) (or (= x71 x111) (or (= x71 x56) (= x71 x8)))) (= x123 x71))) (or (= x133 x123) (or (= x133 x67) (or (or (= x133 x8) (= x56 x133)) (= x111 x133))))) (or (= x85 x123) (or (or (or (= x85 x8) (= x85 x56)) (= x111 x85)) (= x85 x67)))) (or (= x144 x123) (or (or (= x111 x144) (or (= x144 x56) (= x8 x144))) (= x67 x144))))) (and (and (and (or (or (or (= x111 x12) (or (= x8 x12) (= x56 x12))) (= x67 x12)) (= x123 x12)) (and (or (or (= x67 x158) (or (= x158 x111) (or (= x158 x56) (= x158 x8)))) (= x123 x158)) (or (or (= x67 x1) (or (or (= x1 x56) (= x8 x1)) (= x111 x1))) (= x123 x1)))) (or (= x72 x123) (or (= x67 x72) (or (= x72 x111) (or (= x8 x72) (= x56 x72)))))) (or (= x146 x123) (or (or (or (= x8 x146) (= x146 x56)) (= x146 x111)) (= x67 x146)))))))
(assert (or (and (not (= (x89 x123 (x89 x123 x123)) x123)) (and (and (and (not (= x56 (x89 x123 (x89 x123 x56)))) (not (= (x89 x123 (x89 x123 x8)) x8))) (not (= (x89 x123 (x89 x123 x111)) x111))) (not (= (x89 x123 (x89 x123 x67)) x67)))) (or (or (and (not (= x123 (x89 x111 (x89 x111 x123)))) (and (and (and (not (= x8 (x89 x111 (x89 x111 x8)))) (not (= x56 (x89 x111 (x89 x111 x56))))) (not (= x111 (x89 x111 (x89 x111 x111))))) (not (= (x89 x111 (x89 x111 x67)) x67)))) (or (and (not (= (x89 x8 (x89 x8 x123)) x123)) (and (and (and (not (= x56 (x89 x8 (x89 x8 x56)))) (not (= (x89 x8 (x89 x8 x8)) x8))) (not (= (x89 x8 (x89 x8 x111)) x111))) (not (= x67 (x89 x8 (x89 x8 x67)))))) (and (and (and (not (= (x89 x56 (x89 x56 x111)) x111)) (and (not (= x8 (x89 x56 (x89 x56 x8)))) (not (= x56 (x89 x56 (x89 x56 x56)))))) (not (= (x89 x56 (x89 x56 x67)) x67))) (not (= (x89 x56 (x89 x56 x123)) x123))))) (and (and (not (= x67 (x89 x67 (x89 x67 x67)))) (and (not (= (x89 x67 (x89 x67 x111)) x111)) (and (not (= x8 (x89 x67 (x89 x67 x8)))) (not (= (x89 x67 (x89 x67 x56)) x56))))) (not (= x123 (x89 x67 (x89 x67 x123))))))))
(assert (and (or (or (= x67 (x89 x67 (x89 x123 x67))) (or (or (= x56 (x89 x56 (x89 x123 x56))) (= (x89 x8 (x89 x123 x8)) x8)) (= (x89 x111 (x89 x123 x111)) x111))) (= x123 (x89 x123 (x89 x123 x123)))) (and (and (or (= (x89 x123 (x89 x111 x123)) x123) (or (= x67 (x89 x67 (x89 x111 x67))) (or (= x111 (x89 x111 (x89 x111 x111))) (or (= (x89 x56 (x89 x111 x56)) x56) (= (x89 x8 (x89 x111 x8)) x8))))) (and (or (or (or (= x111 (x89 x111 (x89 x56 x111))) (or (= x56 (x89 x56 (x89 x56 x56))) (= x8 (x89 x8 (x89 x56 x8))))) (= (x89 x67 (x89 x56 x67)) x67)) (= x123 (x89 x123 (x89 x56 x123)))) (or (or (= x67 (x89 x67 (x89 x8 x67))) (or (= x111 (x89 x111 (x89 x8 x111))) (or (= (x89 x56 (x89 x8 x56)) x56) (= x8 (x89 x8 (x89 x8 x8)))))) (= (x89 x123 (x89 x8 x123)) x123)))) (or (= x123 (x89 x123 (x89 x67 x123))) (or (or (= x111 (x89 x111 (x89 x67 x111))) (or (= x8 (x89 x8 (x89 x67 x8))) (= x56 (x89 x56 (x89 x67 x56))))) (= (x89 x67 (x89 x67 x67)) x67))))))
(assert (let ((x1 (x89 x8 x123)) (x76 (x89 x123 x8)) (x23 (x89 x123 x67)) (x152 (x89 x123 x123)) (x38 (x89 x56 x67)) (x3 (x89 x56 x123)) (x108 (x89 x111 x111)) (x31 (x89 x111 x56)) (x35 (x89 x56 x8)) (x144 (x89 x8 x111)) (x151 (x89 x56 x56)) (x158 (x89 x8 x67)) (x117 (x89 x56 x111)) (x6 (x89 x67 x56)) (x5 (x89 x67 x67)) (x121 (x89 x67 x123)) (x93 (x89 x67 x111)) (x143 (x89 x123 x111)) (x83 (x89 x111 x123)) (x132 (x89 x8 x56)) (x142 (x89 x123 x56)) (x13 (x89 x67 x8)) (x85 (x89 x8 x8)) (x39 (x89 x111 x67)) (x146 (x89 x111 x8))) (let ((x99 (= x67 x85)) (x107 (= x123 x39)) (x60 (= x67 x108)) (x24 (= x123 x35)) (x71 (= x35 x56)) (x45 (= x142 x123)) (x80 (= x1 x111)) (x150 (= x56 x144)) (x112 (= x31 x111)) (x106 (= x13 x56)) (x59 (= x1 x67)) (x122 (= x8 x152)) (x94 (= x56 x121)) (x90 (= x83 x111)) (x19 (= x6 x8)) (x120 (= x67 x144)) (x97 (= x67 x39)) (x42 (= x67 x143)) (x26 (= x123 x5)) (x75 (= x111 x121)) (x58 (= x8 x5)) (x36 (= x8 x108)) (x129 (= x123 x158)) (x119 (= x67 x83)) (x64 (= x144 x8)) (x73 (= x39 x8)) (x63 (= x8 x23)) (x100 (= x8 x1)) (x32 (= x158 x111)) (x72 (= x85 x8)) (x156 (= x38 x56)) (x91 (= x83 x56)) (x78 (= x111 x85)) (x82 (= x158 x67)) (x102 (= x13 x67)) (x62 (= x3 x67)) (x30 (= x146 x123)) (x131 (= x56 x93)) (x147 (= x117 x56)) (x139 (= x8 x143)) (x47 (= x39 x56)) (x141 (= x121 x8)) (x15 (= x56 x151)) (x44 (= x76 x8)) (x116 (= x121 x123)) (x126 (= x3 x8)) (x95 (= x56 x152)) (x128 (= x56 x31)) (x130 (= x67 x146)) (x149 (= x76 x123)) (x54 (= x144 x123)) (x98 (= x8 x83)) (x154 (= x111 x117)) (x46 (= x108 x123)) (x104 (= x111 x93)) (x101 (= x5 x111)) (x84 (= x67 x5)) (x34 (= x132 x56)) (x14 (= x67 x38)) (x109 (= x39 x111)) (x18 (= x85 x56)) (x20 (= x143 x56)) (x61 (= x144 x111)) (x81 (= x142 x8)) (x86 (= x146 x56)) (x21 (= x35 x111)) (x52 (= x56 x5)) (x88 (= x13 x111)) (x66 (= x151 x111)) (x41 (= x1 x123)) (x159 (= x117 x123)) (x148 (= x67 x152)) (x138 (= x67 x151)) (x134 (= x38 x111)) (x57 (= x56 x142)) (x125 (= x6 x67)) (x110 (= x111 x76)) (x140 (= x23 x56)) (x12 (= x8 x35)) (x113 (= x56 x158)) (x105 (= x13 x8)) (x28 (= x67 x93)) (x2 (= x111 x132)) (x50 (= x111 x6)) (x27 (= x76 x67)) (x136 (= x93 x123)) (x11 (= x123 x151)) (x49 (= x56 x76)) (x53 (= x123 x6)) (x70 (= x23 x111)) (x65 (= x123 x83)) (x96 (= x67 x142)) (x10 (= x8 x146)) (x48 (= x111 x3)) (x92 (= x31 x8)) (x145 (= x108 x56)) (x74 (= x3 x123)) (x103 (= x117 x8)) (x137 (= x31 x67)) (x33 (= x8 x151)) (x153 (= x1 x56)) (x9 (= x117 x67)) (x155 (= x123 x132)) (x115 (= x56 x3)) (x124 (= x108 x111)) (x17 (= x123 x13)) (x43 (= x8 x93)) (x55 (= x38 x8)) (x157 (= x23 x67)) (x51 (= x123 x152)) (x22 (= x123 x23)) (x87 (= x152 x111)) (x16 (= x67 x132)) (x114 (= x111 x142)) (x77 (= x111 x143)) (x37 (= x67 x121)) (x133 (= x8 x132)) (x40 (= x146 x111)) (x68 (= x85 x123)) (x69 (= x123 x143)) (x127 (= x31 x123)) (x25 (= x56 x6)) (x7 (= x38 x123)) (x135 (= x158 x8)) (x79 (= x35 x67))) (and (and (and (and (and (and (and (or (or (or x137 (or x16 x138)) x125) x96) (or (or (or x9 (or x79 x138)) x14) x62)) (and (and (or (or x134 (or (or x21 x66) x154)) x48) (or (or x50 (or (or x66 x2) x112)) x114)) (and (and (or x126 (or x55 (or (or x33 x12) x103))) (or (or (or (or x33 x133) x92) x19) x81)) (and (or (or x25 (or x128 (or x34 x15))) x57) (or (or x156 (or (or x71 x15) x147)) x115))))) (and (or (or (or x159 (or x11 x24)) x7) x74) (or (or x53 (or (or x155 x11) x127)) x45))) (and (and (or (or x129 (or x54 (or x68 x155))) x41) (or (or (or (or x24 x68) x30) x17) x149)) (and (and (and (or (or x88 (or (or x78 x21) x40)) x110) (or (or (or (or x78 x2) x61) x32) x80)) (and (and (or (or (or x86 (or x71 x18)) x106) x49) (or (or (or x150 (or x34 x18)) x113) x153)) (and (or x100 (or x135 (or x64 (or x72 x133)))) (or x44 (or (or x10 (or x72 x12)) x105))))) (and (or x59 (or x82 (or (or x16 x99) x120))) (or x27 (or (or (or x99 x79) x130) x102)))))) (and (and (or (or (or x46 (or x54 x159)) x136) x69) (or (or x107 (or (or x30 x127) x46)) x65)) (and (and (and (and (or (or x43 (or (or x103 x64) x36)) x139) (or (or (or x36 (or x92 x10)) x73) x98)) (and (or x20 (or (or (or x147 x150) x145) x131)) (or (or (or (or x86 x128) x145) x47) x91))) (and (or x90 (or (or (or x40 x112) x124) x109)) (or (or x104 (or (or x154 x61) x124)) x77))) (and (or (or (or (or x9 x120) x60) x28) x42) (or (or (or x60 (or x137 x130)) x97) x119))))) (and (and (or (or (or x136 (or x17 x53)) x26) x116) (or x22 (or x26 (or (or x7 x129) x107)))) (and (and (and (or x75 (or x101 (or x104 (or x88 x50)))) (or (or (or x109 (or x134 x32)) x101) x70)) (and (and (or x141 (or x58 (or (or x19 x105) x43))) (or (or x58 (or x73 (or x135 x55))) x63)) (and (or x94 (or x52 (or x131 (or x25 x106)))) (or x140 (or (or x47 (or x156 x113)) x52))))) (and (or (or (or x28 (or x102 x125)) x84) x37) (or x157 (or x84 (or x97 (or x14 x82)))))))) (and (and (or x51 (or (or (or x41 x74) x65) x116)) (or x51 (or x22 (or (or x45 x149) x69)))) (and (and (or (or (or (or x96 x27) x42) x157) x148) (or x148 (or x37 (or (or x62 x59) x119)))) (and (and (or x87 (or (or (or x80 x48) x90) x75)) (or (or (or (or x110 x114) x77) x70) x87)) (and (and (or x95 (or (or (or x115 x153) x91) x94)) (or x95 (or (or x20 (or x49 x57)) x140))) (and (or (or (or (or x100 x126) x98) x141) x122) (or (or x63 (or x139 (or x81 x44))) x122))))))))))
(assert (or (and (not (= x123 (x89 (x89 x123 x123) x123))) (and (and (and (not (= (x89 (x89 x123 x56) x123) x56)) (not (= x8 (x89 (x89 x123 x8) x123)))) (not (= x111 (x89 (x89 x123 x111) x123)))) (not (= x67 (x89 (x89 x123 x67) x123))))) (or (and (and (not (= (x89 (x89 x67 x67) x67) x67)) (and (and (not (= (x89 (x89 x67 x56) x67) x56)) (not (= x8 (x89 (x89 x67 x8) x67)))) (not (= x111 (x89 (x89 x67 x111) x67))))) (not (= (x89 (x89 x67 x123) x67) x123))) (or (or (and (and (not (= x67 (x89 (x89 x8 x67) x8))) (and (not (= (x89 (x89 x8 x111) x8) x111)) (and (not (= x8 (x89 (x89 x8 x8) x8))) (not (= (x89 (x89 x8 x56) x8) x56))))) (not (= x123 (x89 (x89 x8 x123) x8)))) (and (not (= x123 (x89 (x89 x56 x123) x56))) (and (and (and (not (= (x89 (x89 x56 x56) x56) x56)) (not (= x8 (x89 (x89 x56 x8) x56)))) (not (= x111 (x89 (x89 x56 x111) x56)))) (not (= (x89 (x89 x56 x67) x56) x67))))) (and (not (= x123 (x89 (x89 x111 x123) x111))) (and (not (= x67 (x89 (x89 x111 x67) x111))) (and (not (= (x89 (x89 x111 x111) x111) x111)) (and (not (= (x89 (x89 x111 x56) x111) x56)) (not (= x8 (x89 (x89 x111 x8) x111)))))))))))
(assert (and (and (and (= (x89 x8 x8) x111) (= x56 (x89 x111 x8))) (= x67 (x89 x56 x111))) (= (x89 x67 x67) x123)))
(assert (and (and (and (not (= x67 x111)) (and (and (and (and (and (not (= x56 x67)) (and (not (= x8 x56)) (not (= x56 x111)))) (not (= x123 x56))) (not (= x8 x111))) (not (= x8 x67))) (not (= x123 x8)))) (not (= x111 x123))) (not (= x67 x123))))
(assert (let ((x117 (x89 x67 x67)) (x38 (x89 x123 x123)) (x35 (x89 x111 x111)) (x151 (x89 x8 x8)) (x15 (x89 x56 x56))) (or (and (not (= x123 x38)) (and (not (= x117 x123)) (and (and (not (= x15 x123)) (not (= x123 x151))) (not (= x123 x35))))) (or (or (and (not (= x111 x38)) (and (and (and (not (= x111 x15)) (not (= x151 x111))) (not (= x111 x35))) (not (= x111 x117)))) (or (and (not (= x38 x8)) (and (and (not (= x35 x8)) (and (not (= x151 x8)) (not (= x8 x15)))) (not (= x117 x8)))) (and (and (and (not (= x56 x35)) (and (not (= x56 x15)) (not (= x151 x56)))) (not (= x117 x56))) (not (= x56 x38))))) (and (not (= x67 x38)) (and (not (= x117 x67)) (and (not (= x67 x35)) (and (not (= x15 x67)) (not (= x67 x151))))))))))
(assert (let ((x33 (x89 x8 x8)) (x15 (x89 x56 x56)) (x158 (x89 x56 x123)) (x138 (x89 x111 x111)) (x12 (x89 x111 x123)) (x11 (x89 x67 x111)) (x3 (x89 x56 x8)) (x72 (x89 x67 x123)) (x1 (x89 x8 x123)) (x142 (x89 x56 x111)) (x146 (x89 x123 x123)) (x18 (x89 x8 x67)) (x133 (x89 x111 x67)) (x34 (x89 x123 x111)) (x144 (x89 x123 x67)) (x132 (x89 x111 x8)) (x66 (x89 x8 x111)) (x31 (x89 x67 x8)) (x38 (x89 x123 x56)) (x35 (x89 x111 x56)) (x151 (x89 x8 x56)) (x6 (x89 x123 x8)) (x85 (x89 x67 x67)) (x117 (x89 x67 x56)) (x71 (x89 x56 x67))) (or (and (not (= x123 (x89 x146 x146))) (and (and (and (not (= (x89 x1 x1) x8)) (not (= (x89 x158 x158) x56))) (not (= (x89 x12 x12) x111))) (not (= (x89 x72 x72) x67)))) (or (and (and (and (and (not (= (x89 x71 x71) x56)) (not (= (x89 x18 x18) x8))) (not (= x111 (x89 x133 x133)))) (not (= (x89 x85 x85) x67))) (not (= x123 (x89 x144 x144)))) (or (or (and (and (not (= x67 (x89 x31 x31))) (and (not (= (x89 x132 x132) x111)) (and (not (= (x89 x3 x3) x56)) (not (= (x89 x33 x33) x8))))) (not (= x123 (x89 x6 x6)))) (and (and (not (= x67 (x89 x117 x117))) (and (not (= x111 (x89 x35 x35))) (and (not (= (x89 x15 x15) x56)) (not (= x8 (x89 x151 x151)))))) (not (= x123 (x89 x38 x38))))) (and (and (not (= x67 (x89 x11 x11))) (and (and (not (= x8 (x89 x66 x66))) (not (= x56 (x89 x142 x142)))) (not (= (x89 x138 x138) x111)))) (not (= x123 (x89 x34 x34)))))))))
(assert (let ((x86 (x89 x8 x8)) (x10 (x89 x67 x8)) (x40 (x89 x67 x111)) (x2 (x89 x56 x8)) (x13 (x89 x56 x56)) (x54 (x89 x123 x67)) (x16 (x89 x111 x56)) (x92 (x89 x8 x67)) (x112 (x89 x111 x67)) (x24 (x89 x123 x56)) (x154 (x89 x111 x123)) (x108 (x89 x8 x123)) (x61 (x89 x123 x111)) (x93 (x89 x111 x111)) (x19 (x89 x123 x123)) (x159 (x89 x67 x123)) (x78 (x89 x56 x111)) (x150 (x89 x8 x111)) (x127 (x89 x67 x67)) (x145 (x89 x111 x8)) (x79 (x89 x56 x67)) (x21 (x89 x8 x56)) (x39 (x89 x123 x8)) (x155 (x89 x56 x123)) (x99 (x89 x67 x56))) (let ((x38 (not (= x56 x16))) (x138 (not (= x56 x92))) (x45 (not (= x24 x123))) (x36 (not (= x8 x150))) (x68 (not (= x21 x8))) (x97 (not (= x111 x61))) (x151 (not (= x21 x56))) (x12 (not (= x56 x54))) (x11 (not (= x40 x56))) (x91 (not (= x79 x67))) (x147 (not (= x86 x8))) (x136 (not (= x111 x19))) (x98 (not (= x61 x67))) (x25 (not (= x8 x155))) (x158 (not (= x61 x56))) (x60 (not (= x112 x8))) (x124 (not (= x8 x99))) (x1 (not (= x154 x56))) (x23 (not (= x150 x111))) (x76 (not (= x8 x13))) (x28 (not (= x111 x155))) (x109 (not (= x111 x40))) (x49 (not (= x78 x67))) (x26 (not (= x86 x67))) (x65 (not (= x54 x123))) (x66 (not (= x10 x56))) (x30 (not (= x8 x127))) (x135 (not (= x16 x111))) (x50 (not (= x93 x111))) (x81 (not (= x40 x67))) (x77 (not (= x13 x123))) (x132 (not (= x150 x56))) (x15 (not (= x13 x56))) (x18 (not (= x56 x24))) (x134 (not (= x10 x111))) (x82 (not (= x111 x108))) (x84 (not (= x111 x154))) (x120 (not (= x8 x40))) (x43 (not (= x13 x111))) (x80 (not (= x86 x123))) (x5 (not (= x21 x111))) (x7 (not (= x13 x67))) (x142 (not (= x56 x79))) (x104 (not (= x79 x111))) (x126 (not (= x67 x39))) (x42 (not (= x99 x123))) (x31 (not (= x93 x56))) (x100 (not (= x67 x108))) (x106 (not (= x39 x8))) (x105 (not (= x19 x8))) (x121 (not (= x111 x2))) (x114 (not (= x159 x67))) (x149 (not (= x155 x123))) (x140 (not (= x150 x67))) (x146 (not (= x56 x19))) (x17 (not (= x159 x111))) (x75 (not (= x78 x123))) (x125 (not (= x111 x127))) (x130 (not (= x10 x8))) (x58 (not (= x111 x145))) (x46 (not (= x8 x24))) (x9 (not (= x8 x92))) (x20 (not (= x67 x145))) (x70 (not (= x123 x21))) (x102 (not (= x111 x24))) (x64 (not (= x145 x8))) (x85 (not (= x56 x39))) (x157 (not (= x79 x123))) (x71 (not (= x56 x127))) (x55 (not (= x111 x86))) (x22 (not (= x123 x108))) (x115 (not (= x67 x93))) (x96 (not (= x123 x150))) (x87 (not (= x145 x123))) (x62 (not (= x10 x123))) (x51 (not (= x123 x19))) (x48 (not (= x123 x2))) (x110 (not (= x67 x19))) (x3 (not (= x78 x56))) (x122 (not (= x67 x54))) (x153 (not (= x99 x67))) (x44 (not (= x67 x112))) (x69 (not (= x39 x123))) (x53 (not (= x54 x111))) (x90 (not (= x123 x16))) (x63 (not (= x24 x67))) (x113 (not (= x8 x154))) (x95 (not (= x92 x67))) (x41 (not (= x154 x123))) (x143 (not (= x8 x93))) (x107 (not (= x67 x2))) (x131 (not (= x8 x108))) (x133 (not (= x56 x155))) (x73 (not (= x78 x111))) (x14 (not (= x111 x39))) (x103 (not (= x78 x8))) (x137 (not (= x79 x8))) (x139 (not (= x127 x67))) (x74 (not (= x123 x61))) (x34 (not (= x112 x56))) (x47 (not (= x54 x8))) (x101 (not (= x111 x112))) (x83 (not (= x16 x8))) (x88 (not (= x111 x99))) (x119 (not (= x40 x123))) (x152 (not (= x155 x67))) (x6 (not (= x56 x99))) (x72 (not (= x56 x159))) (x94 (not (= x67 x10))) (x27 (not (= x123 x93))) (x156 (not (= x8 x61))) (x59 (not (= x92 x123))) (x144 (not (= x56 x108))) (x128 (not (= x8 x2))) (x32 (not (= x92 x111))) (x35 (not (= x56 x2))) (x141 (not (= x154 x67))) (x52 (not (= x8 x159))) (x33 (not (= x56 x145))) (x117 (not (= x56 x86))) (x148 (not (= x123 x127))) (x116 (not (= x159 x123))) (x57 (not (= x67 x16))) (x37 (not (= x112 x123))) (x129 (not (= x67 x21)))) (or (and (and (and (or x65 x116) (and (or x74 x41) (and (or x45 x149) (or x22 x69)))) (or x51 x51)) (and (and (and (and (or x37 x119) (and (and (or x90 x75) (or x87 x96)) (or x27 x27))) (or x74 x41)) (and (and (or x45 x149) (and (and (and (or x77 x77) (or x48 x70)) (or x90 x75)) (or x42 x157))) (and (or x22 x69) (and (or x59 x62) (and (and (or x70 x48) (or x80 x80)) (or x96 x87)))))) (and (or x65 x116) (and (or x148 x148) (and (and (or x59 x62) (or x157 x42)) (or x119 x37)))))) (or (or (or (and (and (and (or x72 x12) (and (and (or x11 x34) (and (or x66 x138) (or x142 x6))) (or x71 x71))) (and (and (and (or x133 x18) (and (and (and (or x15 x15) (or x151 x35)) (or x38 x3)) (or x6 x142))) (and (and (and (or x33 x132) (and (or x117 x117) (or x35 x151))) (or x138 x66)) (or x85 x144))) (and (and (or x11 x34) (and (and (or x33 x132) (or x38 x3)) (or x31 x31))) (or x1 x158)))) (and (or x146 x146) (and (and (or x1 x158) (and (or x18 x133) (or x85 x144))) (or x72 x12)))) (and (and (and (and (and (and (or x124 x137) (and (and (or x76 x76) (or x68 x128)) (or x103 x83))) (or x25 x46)) (and (and (and (and (or x147 x147) (or x128 x68)) (or x64 x36)) (or x9 x130)) (or x106 x131))) (and (or x156 x113) (and (and (or x143 x143) (and (or x83 x103) (or x64 x36))) (or x120 x60)))) (and (or x52 x47) (and (and (or x120 x60) (and (or x9 x130) (or x124 x137))) (or x30 x30)))) (and (or x105 x105) (and (and (or x156 x113) (and (or x106 x131) (or x46 x25))) (or x52 x47))))) (and (and (and (or x53 x17) (and (or x84 x97) (and (or x28 x102) (or x14 x82)))) (or x136 x136)) (and (and (and (or x84 x97) (and (and (and (or x23 x58) (or x135 x73)) (or x50 x50)) (or x101 x109))) (and (and (or x102 x28) (and (and (or x73 x135) (and (or x5 x121) (or x43 x43))) (or x104 x88))) (and (or x82 x14) (and (or x32 x134) (and (and (or x55 x55) (or x5 x121)) (or x23 x58)))))) (and (or x53 x17) (and (and (and (or x104 x88) (or x32 x134)) (or x109 x101)) (or x125 x125)))))) (and (and (and (or x122 x114) (and (or x139 x139) (and (or x44 x81) (and (or x95 x94) (or x91 x153))))) (and (and (and (and (or x94 x95) (and (and (or x129 x107) (or x26 x26)) (or x140 x20))) (or x100 x126)) (and (and (or x153 x91) (and (and (or x107 x129) (or x7 x7)) (or x57 x49))) (or x63 x152))) (and (or x98 x141) (and (or x81 x44) (and (or x115 x115) (and (or x49 x57) (or x20 x140))))))) (and (and (and (or x141 x98) (and (or x100 x126) (or x152 x63))) (or x114 x122)) (or x110 x110))))))))
(assert (and (and (and (or (= x111 (x89 (x89 x123 x111) x123)) (or (or (= x111 (x89 (x89 x111 x111) x111)) (or (= x111 (x89 (x89 x56 x111) x56)) (= x111 (x89 (x89 x8 x111) x8)))) (= (x89 (x89 x67 x111) x67) x111))) (and (or (or (or (or (= x8 (x89 (x89 x56 x8) x56)) (= (x89 (x89 x8 x8) x8) x8)) (= x8 (x89 (x89 x111 x8) x111))) (= (x89 (x89 x67 x8) x67) x8)) (= x8 (x89 (x89 x123 x8) x123))) (or (or (or (or (= x56 (x89 (x89 x56 x56) x56)) (= x56 (x89 (x89 x8 x56) x8))) (= (x89 (x89 x111 x56) x111) x56)) (= x56 (x89 (x89 x67 x56) x67))) (= x56 (x89 (x89 x123 x56) x123))))) (or (or (= x67 (x89 (x89 x67 x67) x67)) (or (or (= (x89 (x89 x8 x67) x8) x67) (= (x89 (x89 x56 x67) x56) x67)) (= x67 (x89 (x89 x111 x67) x111)))) (= (x89 (x89 x123 x67) x123) x67))) (or (or (or (= (x89 (x89 x111 x123) x111) x123) (or (= (x89 (x89 x8 x123) x8) x123) (= (x89 (x89 x56 x123) x56) x123))) (= x123 (x89 (x89 x67 x123) x67))) (= (x89 (x89 x123 x123) x123) x123))))
(assert (or (and (and (and (not (= (x89 (x89 x111 x123) x123) x111)) (and (not (= x56 (x89 (x89 x56 x123) x123))) (not (= x8 (x89 (x89 x8 x123) x123))))) (not (= (x89 (x89 x67 x123) x123) x67))) (not (= (x89 (x89 x123 x123) x123) x123))) (or (or (or (and (not (= x123 (x89 (x89 x123 x56) x56))) (and (and (and (not (= x56 (x89 (x89 x56 x56) x56))) (not (= (x89 (x89 x8 x56) x56) x8))) (not (= (x89 (x89 x111 x56) x56) x111))) (not (= (x89 (x89 x67 x56) x56) x67)))) (and (not (= x123 (x89 (x89 x123 x8) x8))) (and (not (= x67 (x89 (x89 x67 x8) x8))) (and (and (not (= (x89 (x89 x56 x8) x8) x56)) (not (= x8 (x89 (x89 x8 x8) x8)))) (not (= x111 (x89 (x89 x111 x8) x8))))))) (and (not (= (x89 (x89 x123 x111) x111) x123)) (and (not (= x67 (x89 (x89 x67 x111) x111))) (and (not (= x111 (x89 (x89 x111 x111) x111))) (and (not (= x56 (x89 (x89 x56 x111) x111))) (not (= x8 (x89 (x89 x8 x111) x111)))))))) (and (and (not (= x67 (x89 (x89 x67 x67) x67))) (and (and (not (= x8 (x89 (x89 x8 x67) x67))) (not (= (x89 (x89 x56 x67) x67) x56))) (not (= x111 (x89 (x89 x111 x67) x67))))) (not (= (x89 (x89 x123 x67) x67) x123))))))
(check-sat)
(exit)
